134
0 48 11 26 73 119 111 99 56 74 
105 83 41 71 51 70 92 132 127 76 
57 53 68 30 34 88 100 85 124 61 
97 128 55 21 126 94 63 36 47 121 
129 122 90 103 75 35 49 65 130 5 
86 4 31 14 66 16 38 23 120 52 
117 46 50 125 12 28 8 81 29 114 
59 20 42 32 95 6 60 9 19 62 
24 123 98 133 7 131 109 69 101 18 
112 72 118 93 87 1 25 2 110 102 
82 44 3 77 91 37 107 116 40 17 
78 10 80 43 106 79 33 104 96 27 
54 15 45 113 64 22 67 108 58 115 
89 84 13 39 
